num_offers = 40;
num_halls = 10;
start=[55,3,50,21,40,30,48,38,64,57,51,2,5,26,27,1,29,18,37,28,82,21,1,9,5,28,52,2,13,24,55,5,4,32,28,28,34,40,54,14];
end=[96,54,68,51,88,37,81,86,74,98,100,66,9,56,40,33,51,93,76,80,99,57,30,70,42,57,75,31,87,36,74,67,6,74,64,54,55,45,98,56];
price=[658,5041,239,947,2739,271,1428,1620,436,2178,4413,2196,241,2529,351,776,475,900,1563,4283,1741,1501,429,4436,2786,1773,763,1554,3760,717,1023,1539,180,3514,1827,1582,1585,554,2225,2143];
requirement=[680,681,827,226,238,672,854,641,909,459,205,872,594,565,300,798,851,479,698,985,264,941,980,618,776,628,744,381,358,949,587,300,307,740,530,780,806,596,433,692];
capacity=[970,866,455,964,615,470,617,848,929,652];
